
<<< setup


<<< generate

Version identifier: 22.1.1.0 | 2022-11-27 | 9160aff4d
Tried aggregator 1 time.
MIQCP Presolve eliminated 723 rows and 1 columns.
MIQCP Presolve modified 1550 coefficients.
Reduced MIQCP has 6774 rows, 6090 columns, and 71506 nonzeros.
Reduced MIQCP has 270 binaries, 0 generals, 0 SOSs, and 0 indicators.
Reduced MIQCP has 1011 quadratic constraints.
Presolve time = 0,25 sec. (260,96 ticks)
Probing fixed 0 vars, tightened 4039 bounds.
Probing time = 0,17 sec. (164,30 ticks)
Clique table members: 1447.
MIP emphasis: balance optimality and feasibility.
MIP search method: dynamic search.
Parallel mode: deterministic, using up to 12 threads.
Root relaxation solution time = 0,03 sec. (57,67 ticks)

        Nodes                                         Cuts/
   Node  Left     Objective  IInf  Best Integer    Best Bound    ItCnt     Gap

      0     0     4293,8874     0                  20822,0031      280         
      0     0     4281,1315    88                     Cone: 1      483         
      0     0     4271,5051   126                     Cone: 2      705         
      0     0     4266,2003   125                     Cone: 3      955         
      0     0     4262,8359   142                     Cone: 4     1178         
      0     0     4261,8188   121                     Cone: 5     1326         
      0     0     4260,1768   142                     Cone: 6     1576         
